%Scalars
Students=40;
Disciplines=12;
Hospitals=2;
Duration=2;
Horizon=24;
Groups=2;
MaxDiscPerHosp=7;
%Data structures
DiscGroup = [1,1,1,1,1,1,2,2,2,2,2,2];

StudDiscGroup =[|
0, 1 |
6, 2 |
1, 6 |
4, 5 |
2, 1 |
5, 3 |
2, 2 |
2, 2 |
5, 6 |
3, 6 |
5, 5 |
0, 1 |
6, 5 |
1, 4 |
6, 3 |
5, 3 |
1, 0 |
5, 1 |
0, 5 |
4, 6 |
6, 2 |
1, 1 |
3, 2 |
2, 4 |
6, 3 |
3, 0 |
3, 6 |
2, 3 |
1, 4 |
2, 4 |
1, 6 |
6, 1 |
3, 1 |
5, 6 |
1, 2 |
6, 6 |
0, 2 |
1, 2 |
1, 3 |
6, 6 |];

AllowedDisc =[|
1, 1, 1, 1, 1, 1, 1, 1, 1, 1, 1, 1 |
1, 1, 1, 1, 1, 1, 1, 1, 1, 1, 1, 1 |
1, 1, 1, 1, 1, 1, 1, 1, 1, 1, 1, 1 |
1, 1, 1, 1, 1, 1, 1, 1, 1, 1, 1, 1 |
1, 1, 1, 1, 1, 1, 1, 1, 1, 1, 1, 1 |
1, 1, 1, 1, 1, 1, 1, 1, 1, 1, 1, 1 |
1, 1, 1, 1, 1, 1, 1, 1, 1, 1, 1, 1 |
1, 1, 1, 1, 1, 1, 1, 1, 1, 1, 1, 1 |
1, 1, 1, 1, 1, 1, 1, 1, 1, 1, 1, 1 |
1, 1, 1, 1, 1, 1, 1, 1, 1, 1, 1, 1 |
1, 1, 1, 1, 1, 1, 1, 1, 1, 1, 1, 1 |
1, 1, 1, 1, 1, 1, 1, 1, 1, 1, 1, 1 |
1, 1, 1, 1, 1, 1, 1, 1, 1, 1, 1, 1 |
1, 1, 1, 1, 1, 1, 1, 1, 1, 1, 1, 1 |
1, 1, 1, 1, 1, 1, 1, 1, 1, 1, 1, 1 |
1, 1, 1, 1, 1, 1, 1, 1, 1, 1, 1, 1 |
1, 1, 1, 1, 1, 1, 1, 1, 1, 1, 1, 1 |
1, 1, 1, 1, 1, 1, 1, 1, 1, 1, 1, 1 |
1, 1, 1, 1, 1, 1, 1, 1, 1, 1, 1, 1 |
1, 1, 1, 1, 1, 1, 1, 1, 1, 1, 1, 1 |
1, 1, 1, 1, 1, 1, 1, 1, 1, 1, 1, 1 |
1, 1, 1, 1, 1, 1, 1, 1, 1, 1, 1, 1 |
1, 1, 1, 1, 1, 1, 1, 1, 1, 1, 1, 1 |
1, 1, 1, 1, 1, 1, 1, 1, 1, 1, 1, 1 |
1, 1, 1, 1, 1, 1, 1, 1, 1, 1, 1, 1 |
1, 1, 1, 1, 1, 1, 1, 1, 1, 1, 1, 1 |
1, 1, 1, 1, 1, 1, 1, 1, 1, 1, 1, 1 |
1, 1, 1, 1, 1, 1, 1, 1, 1, 1, 1, 1 |
1, 1, 1, 1, 1, 1, 1, 1, 1, 1, 1, 1 |
1, 1, 1, 1, 1, 1, 1, 1, 1, 1, 1, 1 |
1, 1, 1, 1, 1, 1, 1, 1, 1, 1, 1, 1 |
1, 1, 1, 1, 1, 1, 1, 1, 1, 1, 1, 1 |
1, 1, 1, 1, 1, 1, 1, 1, 1, 1, 1, 1 |
1, 1, 1, 1, 1, 1, 1, 1, 1, 1, 1, 1 |
1, 1, 1, 1, 1, 1, 1, 1, 1, 1, 1, 1 |
1, 1, 1, 1, 1, 1, 1, 1, 1, 1, 1, 1 |
1, 1, 1, 1, 1, 1, 1, 1, 1, 1, 1, 1 |
1, 1, 1, 1, 1, 1, 1, 1, 1, 1, 1, 1 |
1, 1, 1, 1, 1, 1, 1, 1, 1, 1, 1, 1 |
1, 1, 1, 1, 1, 1, 1, 1, 1, 1, 1, 1 |];

Precededby =[|
0, 0, 0, 0, 0, 0, 0, 0, 0, 0, 0, 0 |
0, 0, 0, 0, 0, 0, 0, 0, 0, 0, 0, 0 |
1, 0, 0, 0, 0, 0, 0, 0, 0, 0, 0, 0 |
0, 0, 0, 0, 0, 0, 0, 0, 0, 0, 0, 0 |
0, 0, 0, 1, 0, 0, 0, 0, 0, 0, 0, 0 |
1, 0, 0, 1, 1, 0, 0, 0, 0, 0, 0, 0 |
0, 0, 0, 0, 0, 0, 0, 0, 0, 0, 0, 0 |
0, 0, 0, 0, 0, 0, 0, 0, 0, 0, 0, 0 |
0, 0, 0, 0, 0, 0, 0, 0, 0, 0, 0, 0 |
0, 0, 0, 0, 0, 0, 0, 1, 1, 0, 0, 0 |
0, 0, 0, 0, 0, 0, 0, 1, 1, 1, 0, 0 |
0, 0, 0, 0, 0, 0, 0, 1, 1, 1, 0, 0 |];

Availability =[|
1, 1, 1, 1, 1, 1, 1, 1, 1, 1, 1, 1, 0, 0, 1, 1, 0, 0, 1, 1, 0, 0, 0, 0 |
1, 1, 1, 1, 1, 1, 1, 1, 1, 1, 1, 1, 1, 1, 1, 1, 1, 1, 1, 1, 1, 1, 1, 1 |
1, 1, 0, 0, 1, 1, 1, 1, 0, 0, 1, 1, 1, 1, 1, 1, 1, 1, 0, 0, 1, 1, 1, 1 |
1, 1, 1, 1, 1, 1, 1, 1, 1, 1, 1, 1, 1, 1, 1, 1, 1, 1, 0, 0, 1, 1, 1, 1 |
1, 1, 0, 0, 1, 1, 1, 1, 0, 0, 0, 0, 0, 0, 0, 0, 1, 1, 1, 1, 1, 1, 1, 1 |
0, 0, 1, 1, 1, 1, 1, 1, 1, 1, 0, 0, 1, 1, 1, 1, 1, 1, 1, 1, 0, 0, 1, 1 |
1, 1, 1, 1, 1, 1, 1, 1, 1, 1, 1, 1, 1, 1, 1, 1, 1, 1, 1, 1, 1, 1, 1, 1 |
1, 1, 1, 1, 1, 1, 1, 1, 0, 0, 0, 0, 0, 0, 1, 1, 1, 1, 0, 0, 0, 0, 1, 1 |
0, 0, 1, 1, 1, 1, 1, 1, 1, 1, 1, 1, 1, 1, 1, 1, 1, 1, 1, 1, 1, 1, 1, 1 |
1, 1, 1, 1, 0, 0, 1, 1, 1, 1, 0, 0, 1, 1, 1, 1, 1, 1, 1, 1, 1, 1, 1, 1 |
1, 1, 1, 1, 1, 1, 1, 1, 1, 1, 1, 1, 1, 1, 1, 1, 1, 1, 1, 1, 1, 1, 0, 0 |
1, 1, 1, 1, 0, 0, 1, 1, 1, 1, 1, 1, 1, 1, 1, 1, 1, 1, 1, 1, 1, 1, 1, 1 |
1, 1, 1, 1, 1, 1, 1, 1, 1, 1, 1, 1, 1, 1, 1, 1, 1, 1, 1, 1, 1, 1, 1, 1 |
1, 1, 0, 0, 1, 1, 1, 1, 0, 0, 0, 0, 1, 1, 0, 0, 0, 0, 1, 1, 1, 1, 1, 1 |
1, 1, 0, 0, 1, 1, 1, 1, 1, 1, 1, 1, 1, 1, 1, 1, 0, 0, 1, 1, 0, 0, 1, 1 |
1, 1, 1, 1, 1, 1, 1, 1, 0, 0, 1, 1, 0, 0, 0, 0, 1, 1, 0, 0, 1, 1, 1, 1 |
0, 0, 1, 1, 0, 0, 1, 1, 1, 1, 1, 1, 1, 1, 1, 1, 1, 1, 1, 1, 0, 0, 0, 0 |
1, 1, 0, 0, 0, 0, 0, 0, 1, 1, 1, 1, 0, 0, 1, 1, 1, 1, 1, 1, 0, 0, 1, 1 |
0, 0, 0, 0, 1, 1, 1, 1, 1, 1, 0, 0, 1, 1, 1, 1, 1, 1, 1, 1, 1, 1, 0, 0 |
1, 1, 1, 1, 1, 1, 1, 1, 1, 1, 1, 1, 1, 1, 1, 1, 1, 1, 1, 1, 1, 1, 1, 1 |
1, 1, 1, 1, 1, 1, 1, 1, 1, 1, 1, 1, 1, 1, 0, 0, 1, 1, 1, 1, 1, 1, 1, 1 |
1, 1, 1, 1, 1, 1, 1, 1, 1, 1, 1, 1, 1, 1, 1, 1, 1, 1, 1, 1, 1, 1, 1, 1 |
0, 0, 1, 1, 1, 1, 1, 1, 1, 1, 1, 1, 1, 1, 1, 1, 1, 1, 1, 1, 1, 1, 0, 0 |
0, 0, 1, 1, 1, 1, 1, 1, 1, 1, 1, 1, 1, 1, 0, 0, 0, 0, 1, 1, 1, 1, 1, 1 |
1, 1, 0, 0, 1, 1, 1, 1, 1, 1, 1, 1, 1, 1, 0, 0, 1, 1, 1, 1, 1, 1, 1, 1 |
1, 1, 0, 0, 0, 0, 1, 1, 0, 0, 0, 0, 1, 1, 0, 0, 1, 1, 1, 1, 0, 0, 1, 1 |
1, 1, 1, 1, 1, 1, 1, 1, 1, 1, 0, 0, 1, 1, 1, 1, 1, 1, 1, 1, 1, 1, 1, 1 |
1, 1, 0, 0, 0, 0, 0, 0, 1, 1, 1, 1, 1, 1, 1, 1, 1, 1, 1, 1, 0, 0, 1, 1 |
1, 1, 0, 0, 1, 1, 1, 1, 1, 1, 1, 1, 1, 1, 0, 0, 1, 1, 0, 0, 1, 1, 0, 0 |
1, 1, 1, 1, 1, 1, 0, 0, 1, 1, 0, 0, 1, 1, 1, 1, 1, 1, 1, 1, 0, 0, 0, 0 |
1, 1, 0, 0, 0, 0, 1, 1, 1, 1, 1, 1, 1, 1, 1, 1, 1, 1, 1, 1, 1, 1, 1, 1 |
0, 0, 1, 1, 1, 1, 1, 1, 1, 1, 1, 1, 1, 1, 0, 0, 1, 1, 0, 0, 1, 1, 1, 1 |
1, 1, 1, 1, 1, 1, 1, 1, 1, 1, 1, 1, 1, 1, 0, 0, 1, 1, 0, 0, 0, 0, 1, 1 |
1, 1, 1, 1, 1, 1, 1, 1, 1, 1, 1, 1, 1, 1, 1, 1, 1, 1, 1, 1, 1, 1, 1, 1 |
1, 1, 1, 1, 1, 1, 1, 1, 1, 1, 1, 1, 1, 1, 1, 1, 1, 1, 1, 1, 1, 1, 1, 1 |
1, 1, 1, 1, 1, 1, 1, 1, 1, 1, 1, 1, 1, 1, 1, 1, 1, 1, 1, 1, 1, 1, 1, 1 |
0, 0, 0, 0, 0, 0, 0, 0, 1, 1, 0, 0, 1, 1, 1, 1, 1, 1, 1, 1, 1, 1, 1, 1 |
1, 1, 1, 1, 1, 1, 0, 0, 1, 1, 1, 1, 1, 1, 1, 1, 1, 1, 1, 1, 1, 1, 1, 1 |
1, 1, 1, 1, 1, 1, 1, 1, 1, 1, 1, 1, 1, 1, 1, 1, 1, 1, 1, 1, 1, 1, 0, 0 |
1, 1, 1, 1, 1, 1, 1, 1, 1, 1, 1, 1, 1, 1, 1, 1, 1, 1, 1, 1, 1, 1, 1, 1 |];

Ability =
 array3d(1..Students,1..Hospitals,1..Disciplines,[
1, 1, 1, 1, 1, 0, 1, 1, 1, 1, 1, 1 ,
1, 1, 1, 1, 1, 1, 1, 1, 1, 1, 1, 1 ,
1, 1, 0, 1, 1, 1, 1, 1, 1, 1, 1, 1 ,
1, 1, 1, 1, 1, 1, 1, 1, 1, 1, 1, 1 ,
1, 1, 1, 1, 0, 1, 1, 1, 1, 1, 1, 1 ,
1, 1, 1, 1, 1, 1, 1, 1, 1, 1, 1, 0 ,
1, 1, 1, 1, 1, 1, 1, 1, 1, 1, 1, 1 ,
1, 1, 1, 1, 1, 1, 1, 1, 1, 1, 1, 1 ,
1, 1, 1, 1, 1, 1, 1, 1, 1, 1, 1, 1 ,
1, 1, 1, 1, 1, 1, 1, 1, 1, 1, 1, 1 ,
1, 1, 1, 1, 1, 0, 1, 1, 1, 1, 1, 0 ,
1, 1, 1, 1, 1, 1, 1, 1, 1, 1, 1, 1 ,
1, 0, 1, 1, 0, 1, 1, 1, 1, 1, 1, 1 ,
1, 1, 1, 1, 1, 1, 1, 1, 1, 1, 1, 1 ,
1, 0, 1, 1, 0, 1, 1, 1, 1, 1, 1, 1 ,
1, 1, 1, 1, 1, 1, 1, 1, 1, 1, 1, 0 ,
1, 1, 1, 1, 1, 1, 1, 1, 1, 1, 1, 1 ,
0, 1, 1, 1, 1, 1, 1, 1, 1, 1, 1, 1 ,
1, 1, 1, 1, 1, 1, 1, 1, 1, 1, 1, 1 ,
1, 1, 1, 1, 0, 1, 1, 1, 1, 1, 0, 1 ,
1, 1, 1, 1, 1, 1, 1, 1, 1, 1, 1, 1 ,
0, 1, 1, 1, 1, 1, 1, 1, 1, 1, 1, 1 ,
1, 1, 1, 1, 1, 1, 1, 1, 1, 1, 1, 1 ,
1, 1, 1, 0, 1, 1, 1, 1, 1, 1, 0, 1 ,
1, 1, 1, 1, 1, 1, 1, 1, 1, 1, 1, 1 ,
1, 1, 1, 1, 1, 1, 1, 1, 1, 1, 1, 1 ,
1, 1, 1, 1, 1, 1, 1, 1, 1, 1, 1, 1 ,
1, 1, 1, 1, 1, 1, 1, 1, 1, 1, 1, 1 ,
1, 1, 1, 1, 1, 1, 1, 1, 1, 1, 1, 1 ,
1, 1, 1, 1, 1, 0, 1, 1, 1, 1, 1, 1 ,
1, 1, 1, 1, 1, 1, 1, 1, 1, 1, 1, 1 ,
1, 1, 1, 1, 1, 1, 1, 1, 1, 1, 1, 1 ,
1, 1, 1, 1, 1, 1, 1, 1, 1, 1, 1, 1 ,
1, 1, 1, 1, 1, 1, 1, 1, 1, 1, 1, 1 ,
0, 0, 1, 1, 1, 1, 1, 1, 1, 1, 1, 1 ,
1, 1, 1, 1, 1, 1, 1, 1, 1, 1, 1, 1 ,
1, 1, 1, 1, 1, 1, 1, 1, 1, 1, 1, 1 ,
1, 0, 1, 1, 1, 1, 1, 1, 1, 1, 1, 1 ,
1, 1, 1, 1, 1, 1, 1, 1, 1, 1, 1, 1 ,
1, 1, 1, 1, 1, 1, 1, 1, 1, 1, 1, 0 ,
1, 1, 0, 1, 1, 1, 1, 1, 1, 1, 1, 1 ,
1, 1, 1, 1, 1, 1, 1, 1, 1, 1, 1, 1 ,
0, 1, 1, 1, 1, 1, 1, 1, 1, 1, 1, 1 ,
1, 1, 1, 1, 1, 1, 1, 0, 0, 1, 1, 1 ,
0, 1, 1, 1, 1, 1, 1, 1, 1, 1, 1, 1 ,
1, 1, 1, 1, 1, 1, 1, 1, 1, 1, 1, 1 ,
1, 1, 1, 1, 1, 1, 1, 1, 1, 1, 1, 1 ,
1, 1, 1, 1, 1, 1, 1, 1, 1, 1, 1, 1 ,
0, 1, 1, 1, 1, 1, 0, 1, 0, 1, 1, 1 ,
1, 1, 1, 1, 1, 1, 1, 1, 1, 1, 1, 1 ,
1, 1, 1, 1, 1, 1, 1, 1, 1, 1, 1, 1 ,
1, 1, 1, 0, 1, 1, 1, 1, 1, 1, 1, 1 ,
1, 1, 1, 0, 1, 1, 1, 1, 1, 1, 1, 1 ,
1, 1, 1, 1, 1, 1, 1, 1, 1, 1, 1, 1 ,
1, 1, 1, 1, 1, 1, 1, 1, 1, 1, 1, 1 ,
1, 1, 1, 1, 1, 1, 1, 0, 1, 1, 1, 1 ,
1, 1, 1, 1, 1, 1, 1, 1, 0, 1, 1, 1 ,
1, 1, 1, 1, 1, 1, 1, 1, 1, 1, 1, 1 ,
1, 1, 1, 1, 1, 1, 1, 1, 1, 1, 1, 1 ,
0, 1, 1, 1, 1, 1, 1, 1, 1, 1, 1, 1 ,
1, 1, 1, 1, 1, 1, 1, 1, 1, 1, 1, 1 ,
1, 1, 1, 1, 1, 1, 1, 1, 1, 1, 1, 1 ,
1, 1, 1, 1, 1, 1, 1, 1, 1, 1, 1, 1 ,
1, 1, 1, 1, 1, 1, 1, 1, 1, 1, 1, 1 ,
1, 1, 1, 1, 1, 1, 1, 1, 1, 1, 1, 1 ,
1, 1, 1, 1, 1, 1, 1, 1, 1, 1, 1, 0 ,
1, 1, 1, 1, 1, 1, 0, 1, 1, 0, 1, 1 ,
1, 1, 0, 1, 1, 1, 1, 1, 1, 1, 1, 1 ,
1, 1, 1, 1, 1, 1, 1, 1, 1, 1, 1, 1 ,
1, 1, 1, 1, 1, 1, 1, 1, 1, 1, 1, 1 ,
1, 1, 1, 1, 1, 1, 1, 1, 1, 1, 1, 1 ,
1, 1, 1, 1, 1, 1, 1, 1, 1, 1, 1, 0 ,
1, 1, 1, 1, 1, 1, 1, 1, 1, 1, 1, 1 ,
1, 1, 1, 1, 1, 1, 1, 1, 1, 1, 0, 1 ,
1, 1, 0, 1, 1, 1, 1, 1, 1, 1, 1, 1 ,
1, 1, 1, 1, 1, 1, 1, 1, 1, 1, 1, 1 ,
1, 1, 1, 1, 1, 1, 1, 1, 1, 1, 1, 1 ,
1, 1, 1, 1, 1, 1, 1, 1, 1, 1, 1, 1 ,
0, 1, 0, 1, 1, 1, 1, 1, 1, 1, 1, 1 ,
1, 1, 1, 1, 0, 1, 1, 1, 1, 1, 1, 1]);

MaxPosHosp =
 array3d(1..Hospitals, 1..Disciplines, 1..Horizon,[
19, 19, 15, 15, 19, 19, 10, 10, 17, 17, 14, 14, 17, 17, 12, 12, 11, 11, 9, 9, 16, 16, 10, 10 ,
12, 14, 14, 16, 16, 18, 18, 19, 19, 19, 19, 16, 16, 9, 9, 12, 12, 18, 18, 10, 10, 20, 20, 10 ,
11, 19, 19, 13, 13, 19, 19, 18, 18, 20, 20, 17, 17, 9, 9, 15, 15, 20, 20, 12, 12, 17, 17, 16 ,
15, 15, 12, 12, 14, 14, 19, 19, 14, 14, 17, 17, 20, 20, 11, 11, 9, 9, 20, 20, 12, 12, 10, 10 ,
15, 15, 15, 15, 19, 19, 12, 12, 13, 13, 14, 14, 9, 9, 20, 20, 16, 16, 14, 14, 17, 17, 9, 9 ,
18, 13, 13, 19, 19, 14, 14, 20, 20, 11, 11, 15, 15, 17, 17, 15, 15, 11, 11, 9, 9, 13, 13, 19 ,
13, 13, 13, 13, 18, 18, 11, 11, 12, 12, 18, 18, 19, 19, 11, 11, 18, 18, 17, 17, 19, 19, 9, 9 ,
12, 12, 16, 16, 17, 17, 20, 20, 12, 12, 19, 19, 12, 12, 13, 13, 10, 10, 11, 11, 20, 20, 9, 9 ,
10, 10, 18, 18, 16, 16, 19, 19, 12, 12, 20, 20, 12, 12, 17, 17, 16, 16, 9, 9, 10, 10, 17, 17 ,
13, 19, 19, 17, 17, 18, 18, 15, 15, 12, 12, 19, 19, 17, 17, 12, 12, 15, 15, 14, 14, 15, 15, 17 ,
9, 15, 15, 15, 15, 10, 10, 10, 10, 15, 15, 12, 12, 14, 14, 14, 14, 16, 16, 18, 18, 9, 9, 16 ,
12, 15, 15, 18, 18, 16, 16, 16, 16, 10, 10, 18, 18, 13, 13, 19, 19, 18, 18, 11, 11, 11, 11, 20 ,
20, 20, 20, 20, 10, 10, 18, 18, 17, 17, 17, 17, 14, 14, 18, 18, 11, 11, 15, 15, 14, 14, 20, 20 ,
10, 16, 16, 14, 14, 10, 10, 17, 17, 18, 18, 13, 13, 20, 20, 9, 9, 17, 17, 12, 12, 19, 19, 15 ,
13, 13, 12, 12, 15, 15, 11, 11, 9, 9, 17, 17, 16, 16, 19, 19, 10, 10, 20, 20, 17, 17, 20, 20 ,
14, 14, 16, 16, 16, 16, 17, 17, 11, 11, 10, 10, 14, 14, 16, 16, 16, 16, 17, 17, 10, 10, 15, 15 ,
17, 15, 15, 15, 15, 14, 14, 20, 20, 16, 16, 16, 16, 18, 18, 10, 10, 17, 17, 11, 11, 16, 16, 13 ,
16, 13, 13, 11, 11, 18, 18, 9, 9, 20, 20, 16, 16, 20, 20, 20, 20, 9, 9, 18, 18, 16, 16, 11 ,
13, 13, 16, 16, 13, 13, 9, 9, 20, 20, 12, 12, 17, 17, 13, 13, 18, 18, 15, 15, 15, 15, 18, 18 ,
13, 13, 14, 14, 20, 20, 20, 20, 18, 18, 11, 11, 12, 12, 17, 17, 13, 13, 18, 18, 10, 10, 9, 9 ,
17, 17, 20, 20, 20, 20, 19, 19, 18, 18, 12, 12, 9, 9, 17, 17, 20, 20, 20, 20, 16, 16, 15, 15 ,
9, 9, 16, 16, 11, 11, 15, 15, 12, 12, 15, 15, 19, 19, 16, 16, 20, 20, 18, 18, 12, 12, 14, 14 ,
18, 18, 16, 16, 18, 18, 12, 12, 9, 9, 11, 11, 9, 9, 17, 17, 14, 14, 15, 15, 14, 14, 15, 15 ,
10, 16, 16, 18, 18, 10, 10, 16, 16, 20, 20, 20, 20, 14, 14, 20, 20, 18, 18, 20, 20, 19, 19, 15]);

MinPosHosp =
 array3d(1..Hospitals, 1..Disciplines, 1..Horizon,[
0, 0, 0, 0, 0, 1, 0, 0, 0, 0, 2, 0, 0, 0, 0, 0, 1, 0, 0, 1, 0, 0, 0, 0 ,
1, 2, 0, 0, 0, 0, 0, 0, 1, 0, 0, 0, 0, 0, 0, 0, 0, 0, 0, 0, 0, 0, 1, 0 ,
0, 0, 0, 0, 0, 1, 0, 0, 0, 2, 1, 1, 0, 0, 0, 2, 0, 0, 0, 2, 0, 1, 1, 0 ,
0, 1, 0, 0, 0, 0, 0, 0, 0, 0, 2, 0, 0, 2, 0, 0, 0, 2, 0, 0, 0, 0, 2, 0 ,
0, 0, 0, 0, 0, 0, 0, 0, 0, 0, 0, 2, 0, 0, 0, 0, 0, 0, 0, 0, 1, 0, 0, 0 ,
0, 0, 0, 0, 0, 0, 0, 0, 0, 1, 0, 1, 0, 0, 0, 0, 0, 0, 0, 0, 0, 0, 0, 1 ,
0, 0, 0, 0, 0, 0, 1, 0, 0, 1, 0, 0, 0, 2, 0, 1, 0, 0, 0, 0, 0, 0, 0, 0 ,
0, 0, 1, 0, 0, 0, 0, 0, 0, 0, 2, 0, 0, 0, 0, 1, 0, 0, 0, 0, 0, 0, 0, 1 ,
2, 1, 0, 0, 0, 1, 1, 1, 0, 0, 0, 0, 0, 0, 0, 0, 0, 0, 0, 2, 0, 0, 0, 0 ,
0, 0, 0, 0, 0, 2, 0, 1, 0, 0, 0, 0, 0, 0, 0, 0, 0, 0, 0, 0, 0, 0, 0, 0 ,
0, 0, 0, 0, 0, 0, 1, 0, 1, 0, 1, 0, 0, 0, 0, 0, 0, 2, 0, 0, 2, 0, 0, 0 ,
0, 0, 0, 0, 0, 0, 0, 0, 1, 1, 0, 0, 0, 0, 0, 0, 0, 0, 0, 0, 0, 0, 0, 0 ,
0, 0, 1, 0, 0, 0, 2, 0, 1, 2, 1, 0, 0, 0, 0, 0, 0, 0, 0, 1, 0, 0, 2, 0 ,
2, 0, 0, 0, 0, 0, 0, 0, 0, 0, 0, 0, 0, 0, 0, 1, 0, 0, 0, 0, 0, 0, 0, 0 ,
0, 0, 2, 0, 0, 0, 0, 2, 0, 0, 0, 0, 0, 2, 2, 0, 0, 0, 1, 0, 0, 0, 2, 2 ,
0, 0, 0, 1, 0, 0, 1, 2, 0, 0, 0, 0, 0, 1, 0, 0, 0, 0, 0, 0, 0, 1, 0, 0 ,
0, 0, 0, 0, 0, 0, 0, 0, 0, 0, 0, 0, 0, 0, 0, 0, 0, 0, 0, 0, 0, 0, 0, 0 ,
0, 0, 0, 0, 0, 0, 0, 0, 0, 1, 0, 0, 0, 0, 0, 0, 0, 0, 0, 0, 1, 2, 1, 0 ,
0, 0, 2, 0, 0, 2, 0, 0, 0, 0, 1, 0, 0, 2, 0, 0, 0, 1, 2, 1, 0, 0, 0, 1 ,
0, 0, 0, 0, 0, 0, 0, 0, 0, 0, 0, 0, 1, 0, 0, 0, 0, 0, 0, 0, 0, 0, 2, 0 ,
0, 1, 0, 1, 0, 0, 0, 0, 2, 0, 0, 0, 0, 0, 0, 0, 1, 0, 2, 0, 0, 0, 0, 0 ,
0, 0, 0, 0, 0, 0, 0, 1, 0, 0, 0, 0, 0, 0, 0, 0, 0, 0, 1, 0, 0, 0, 0, 0 ,
0, 0, 0, 0, 0, 0, 0, 0, 2, 0, 0, 0, 0, 0, 0, 2, 0, 0, 0, 0, 0, 0, 0, 1 ,
0, 0, 0, 0, 0, 0, 0, 0, 0, 0, 0, 0, 0, 0, 0, 0, 0, 0, 0, 0, 0, 1, 0, 2]);

%W_disc W_hosp W_change W_wait
WeightPref=[|
2,3,-1,-3 |
1,1,-2,-2 |
3,1,-2,-1 |
2,1,-3,-3 |
3,1,-3,-3 |
3,1,-1,-1 |
3,1,-1,-3 |
3,1,-3,-1 |
1,1,-2,-1 |
1,2,-2,-1 |
2,2,-1,-1 |
2,2,-3,-1 |
2,1,-1,-3 |
1,3,-2,-3 |
2,3,-2,-3 |
3,3,-3,-1 |
2,1,-1,-2 |
3,2,-2,-1 |
3,3,-1,-3 |
3,2,-1,-3 |
3,1,-1,-1 |
2,2,-3,-1 |
3,1,-2,-1 |
2,1,-1,-1 |
2,3,-3,-1 |
2,1,-3,-3 |
2,2,-1,-2 |
3,3,-3,-1 |
1,2,-1,-2 |
2,2,-1,-3 |
3,1,-3,-3 |
2,3,-2,-3 |
3,2,-2,-1 |
2,1,-3,-3 |
2,3,-3,-1 |
3,1,-1,-2 |
1,3,-1,-3 |
2,1,-1,-3 |
1,2,-3,-3 |
3,2,-1,-1 |];

PrefStudDisc =[|
2, 5, 4, 5, 5, 5, 3, 5, 1, 4, 3, 5 |
1, 4, 1, 5, 5, 2, 2, 1, 3, 2, 2, 2 |
2, 5, 4, 2, 5, 2, 4, 5, 1, 5, 3, 4 |
2, 5, 2, 5, 5, 2, 1, 4, 4, 1, 2, 5 |
1, 2, 2, 4, 1, 5, 5, 1, 4, 5, 3, 1 |
1, 4, 1, 2, 4, 2, 5, 1, 1, 1, 2, 3 |
4, 2, 5, 1, 3, 2, 2, 5, 1, 2, 4, 3 |
2, 5, 5, 5, 4, 1, 1, 4, 3, 2, 2, 4 |
5, 1, 5, 5, 3, 3, 1, 1, 2, 4, 1, 3 |
1, 5, 1, 1, 2, 5, 1, 3, 3, 5, 5, 3 |
3, 3, 5, 4, 2, 3, 2, 5, 3, 4, 3, 4 |
3, 3, 3, 5, 1, 4, 1, 1, 5, 4, 5, 4 |
1, 3, 1, 4, 4, 1, 1, 1, 3, 2, 5, 4 |
3, 2, 5, 5, 2, 1, 3, 4, 2, 3, 4, 4 |
4, 5, 2, 2, 5, 3, 5, 2, 3, 5, 5, 4 |
4, 4, 5, 3, 5, 3, 5, 3, 5, 2, 4, 3 |
1, 4, 2, 3, 3, 2, 3, 1, 2, 1, 4, 4 |
1, 5, 3, 2, 4, 4, 1, 2, 3, 1, 3, 4 |
5, 2, 3, 2, 4, 1, 3, 4, 4, 1, 3, 4 |
2, 5, 2, 2, 2, 4, 1, 5, 5, 2, 4, 5 |
1, 2, 4, 2, 2, 4, 4, 3, 2, 3, 5, 2 |
2, 5, 4, 2, 3, 1, 2, 2, 4, 4, 4, 1 |
2, 2, 1, 5, 1, 3, 5, 5, 1, 5, 5, 2 |
1, 4, 5, 1, 4, 4, 1, 4, 1, 5, 2, 5 |
1, 1, 2, 3, 5, 1, 4, 2, 5, 1, 5, 1 |
1, 3, 2, 4, 1, 1, 2, 1, 5, 2, 3, 2 |
1, 2, 1, 1, 2, 1, 4, 4, 4, 2, 3, 5 |
1, 1, 4, 3, 2, 3, 4, 2, 3, 3, 5, 4 |
4, 3, 2, 5, 5, 2, 1, 4, 2, 3, 5, 1 |
5, 2, 1, 3, 4, 4, 1, 1, 5, 1, 3, 1 |
1, 3, 3, 4, 3, 5, 3, 1, 4, 4, 4, 3 |
3, 5, 5, 5, 5, 4, 4, 2, 4, 1, 2, 2 |
4, 5, 5, 4, 4, 2, 4, 2, 1, 5, 3, 4 |
2, 3, 1, 2, 5, 4, 4, 2, 5, 2, 3, 2 |
3, 4, 4, 3, 4, 4, 3, 3, 3, 2, 4, 3 |
5, 3, 4, 1, 4, 3, 5, 4, 1, 5, 1, 1 |
4, 3, 1, 3, 5, 4, 2, 2, 5, 2, 5, 1 |
2, 2, 3, 3, 4, 4, 4, 3, 2, 4, 1, 5 |
3, 3, 1, 2, 4, 1, 4, 4, 1, 1, 5, 5 |
4, 3, 4, 5, 4, 3, 1, 5, 2, 3, 4, 3 |];

PrefStudHosp =[|
5, 2 |
3, 2 |
3, 1 |
3, 3 |
5, 4 |
1, 5 |
4, 5 |
3, 1 |
3, 3 |
1, 5 |
5, 1 |
2, 3 |
3, 2 |
1, 3 |
2, 1 |
1, 3 |
4, 1 |
5, 1 |
1, 3 |
4, 3 |
3, 1 |
4, 5 |
4, 5 |
3, 5 |
3, 5 |
2, 1 |
1, 1 |
1, 5 |
4, 4 |
2, 3 |
1, 3 |
5, 1 |
2, 3 |
4, 4 |
1, 3 |
1, 5 |
2, 3 |
2, 2 |
4, 1 |
5, 5 |];

ManPref=[4,4,3,2,3,1,3,5,3,4,4,0];

%% Instance features:
%Scalars :40 , 12 , 2 , 24 , 2 , 0.583333
%Occupancy: 0.0586463
%Excess: 0.266798
%Busyness: 0.527083
%Density: 0.181818
%Depth: 2
